NAME: ACTUAL_TOURS/amz1321
TYPE: TOUR
COMMENT: RouteID_8b665e73-05bf-459c-9e4d-cc7aa6b6c73d
DIMENSION: 174
TOUR_SECTION
138
20
147
105
169
6
87
97
52
23
81
118
80
22
37
149
54
102
156
30
114
24
148
120
46
163
50
57
133
41
93
170
27
67
155
68
83
121
146
8
82
88
70
154
48
56
108
95
85
89
137
96
32
100
28
69
17
29
38
119
167
49
65
13
130
78
63
59
99
5
143
152
74
14
15
76
98
125
11
127
159
174
168
71
107
113
31
39
10
122
40
112
124
110
75
106
16
66
166
84
111
42
160
136
2
77
60
103
47
33
141
72
165
90
171
36
134
115
64
73
144
92
7
173
140
151
35
157
53
101
3
18
58
164
132
131
172
161
45
55
91
19
109
1
150
123
61
25
129
158
153
142
34
12
86
162
139
94
79
104
135
145
21
43
126
128
116
62
44
117
26
9
51
4
-1
EOF
